height = 12;
width = 12;
maxship = 5;
ship = [3,2,4,1,4];
hint = [|
0, 0, 0, 0, 0, 0, 0, 0, 0, 0, 0, 0 |
0, 0, 0, 0, 0, 0, 0, 0, 0, 0, 0, 0 |
0, 0, 0, 0, 0, 0, 0, 0, 0, 0, 0, 0 |
0, 0, 0, 0, 0, 0, 0, 0, 0, 0, 0, 0 |
0, 0, 0, 0, 0, 0, 0, 0, 0, 0, 0, 0 |
0, 0, 0, 0, 0, 0, 0, 0, 0, 0, 0, 0 |
0, 0, 0, 0, 0, 0, 0, 0, 0, 0, 0, 0 |
0, 0, 0, 0, 0, 0, 0, 0, 0, 0, 0, 0 |
0, 0, 0, 0, 0, 0, 0, 0, 0, 0, 0, 0 |
0, 0, 0, 0, 0, 0, 0, 0, 0, 0, 0, 0 |
0, 0, 0, 0, 0, 0, 0, 0, 0, 0, 0, 0 |
0, 0, 0, 0, 0, 0, 0, 0, 0, 0, 0, 0 |];
rowsum = [1,7,2,4,3,3,3,6,2,3,3,6];
colsum = [2,7,1,1,10,0,2,7,2,2,7,2];
%  . 10  .  .  .  .  .  .  .  .  . 13 
%  . 10  .  4  4  4  4  4  . 12  .  . 
%  .  .  .  .  .  .  .  .  .  .  .  8 
%  .  .  .  .  .  .  .  .  .  .  .  8 
%  3  3  3  3  3  .  5  5  5  5  .  8 
%  .  .  .  .  .  .  .  .  .  .  .  . 
%  .  .  .  .  .  .  .  6  .  .  7  . 
%  .  1  1  1  1  1  .  6  .  .  7  . 
%  .  .  .  .  .  .  .  6  .  .  7  . 
%  .  9  . 14  .  .  .  .  .  .  .  . 
%  .  9  .  .  .  2  2  2  2  2  . 11 
%  .  9  .  .  .  .  .  .  .  .  . 11 
